c WARNING: for repeatability, setting FPU to use double precision
d VARIABLES            72338        
d CONSTRAINTS          288339       
c ============================[ Problem Statistics ]=============================
c |                                                                             |
c |  Number of variables:         72338                                         |
c |  Number of clauses:          288339                                         |
c |  Parse time:                   0.05 s                                       |
c |                                                                             |
c ============================[ Search Statistics ]==============================
c | Conflicts |          ORIGINAL         |          LEARNT          | Progress |
c |           |    Vars  Clauses Literals |    Limit  Clauses Lit/Cl |          |
c ===============================================================================
c |       100 |   52648   237513   580855 |    87088      100     52 | 27.219 % |
c |       250 |   52648   237513   580855 |    95796      250     74 | 27.219 % |
c |       475 |   52648   237513   580855 |   105376      475     86 | 27.219 % |
c |       812 |   52648   237513   580855 |   115914      812    101 | 27.219 % |
c |      1318 |   52648   237513   580855 |   127505     1318    102 | 27.219 % |
c |      2077 |   52648   237513   580855 |   140256     2077    105 | 27.219 % |
c |      3216 |   52648   237513   580855 |   154281     3216    129 | 27.219 % |
c |      4924 |   52648   237513   580855 |   169710     4924    121 | 27.219 % |
c |      7486 |   52648   237513   580855 |   186681     7486    119 | 27.219 % |
c |     11330 |   52648   237513   580855 |   205349    11330    126 | 27.219 % |
c |     17096 |   52647   237502   580829 |   225884    17090    124 | 27.221 % |
c |     25745 |   52645   237480   580777 |   248472    25736    124 | 27.224 % |
c ===============================================================================
c restarts              : 116
c conflicts             : 31426          (3706 /sec)
c decisions             : 128992         (0.00 % random) (15210 /sec)
c propagations          : 49209530       (5802648 /sec)
c conflict literals     : 3747205        (23.07 % deleted)
d RESTARTS             116
d FAILURES             31426        
d NODES                128992       
d BACKTRACKS           128992       
d PROPAGATIONS         49209530     
d NOGOODSIZE           119.24 
d MEMORY               52.00 
d TIME                 8.48053 

s UNSATISFIABLE
